K = 7;

P = [ 86 54 98 46 67 18 35 ];

R = [ 50 16 22 18 7 35 41 ];

A = [ 5 6 5 4 5 2 5 ];

C = [ 2 7 2 5 6 4 5 ];

N = 7;

M = [
[ 0 2 37 16 49 38 40 ]
[ 2 0 42 22 44 19 21 ]
[ 37 42 0 27 42 50 38 ]
[ 16 22 27 0 3 17 26 ]
[ 49 44 42 3 0 48 24 ]
[ 38 19 50 17 48 0 10 ]
[ 40 21 38 26 24 10 0 ]
 ];

